c NeuroCodeBench 2.0 CNF formula with verdict Unsat
p cnf 12 45
1 -4 -8 -11 7 -10 9 0
-1 -3 10 12 0
1 -4 -8 -11 -7 0
-1 -3 -10 2 -12 0
1 4 9 -10 -8 11 5 0
-1 3 12 2 0
1 -4 8 11 -10 -6 7 -9 0
1 4 9 -10 8 5 0
1 4 -9 -10 3 -2 11 0
1 -4 -8 11 -3 10 0
1 4 9 10 -7 5 2 0
1 -4 8 11 10 0
1 -4 8 11 -10 -6 7 9 0
-1 -3 -10 -2 11 -5 -12 0
1 -4 8 11 -10 -6 -7 0
1 -4 8 11 -10 6 0
-1 3 -12 0
1 4 9 -10 -8 11 -5 0
1 4 -9 -10 3 2 -6 -7 0
1 4 -9 -10 3 -2 -11 0
-1 3 12 -2 0
-1 -3 -10 -2 11 -5 12 0
1 4 9 -10 8 -5 0
-1 -3 -10 -2 11 5 0
1 4 -9 -10 -3 0
-1 -3 -10 -2 -11 0
1 4 9 10 -7 5 -2 0
-1 -3 -10 2 12 -6 0
-1 -3 -10 2 12 6 0
1 4 9 10 7 -12 0
1 4 9 10 -7 -5 0
1 -4 -8 -11 7 10 0
1 -4 8 -11 -2 -12 0
1 4 -9 10 11 0
1 -4 -8 11 -3 -10 0
1 -4 -8 11 3 0
1 4 -9 -10 3 2 -6 7 0
1 4 9 -10 -8 -11 0
1 4 9 10 7 12 0
1 4 -9 -10 3 2 6 0
-1 -3 10 -12 0
1 -4 8 -11 -2 12 0
1 -4 -8 -11 7 -10 -9 0
1 -4 8 -11 2 0
1 4 -9 10 -11 0
